n = 39;
lu = [|-1065, 1098
      |-1419, 1516
      |-518, -395
      |-950, -607
      |-1102, 1495
      |1250, 1512
      |-1165, 712
      |207, 897
      |-1399, -1391
      |-1138, -626
      |-569, 548
      |-1413, 944
      |-707, 777
      |1140, 1411
      |711, 1351
      |-619, 197
      |318, 892
      |-1495, -382
      |-868, 1338
      |-128, 210
      |-885, -383
      |-640, -143
      |-1142, -1103
      |-1125, 35
      |-113, -51
      |-438, 951
      |-1344, 1467
      |360, 675
      |-1010, 29
      |-1199, 740
      |-321, 1053
      |-40, 1012
      |-734, 843
      |-1237, 1364
      |-1334, 1187
      |-588, -336
      |-1195, -568
      |-1108, 35
      |-383, 336|];
